7310 7985
7310 7985
7385 7985
7385 7984
7408 7984
7408 7965
7556 7965
7556 7948
7652 7948
7652 7932
7695 7932
7695 7925
7712 7925
7712 7896
7772 7896
7772 7852
7851 7852
7851 7793
7930 7793
7930 7689
8010 7689
8010 7608
8055 7608
8055 7580
8065 7580
8065 7522
8083 7522
8083 7458
8097 7458
8097 7420
8105 7420
8105 7412
8106 7412
8106 7198
8123 7198
8106 7412
8105 7420
8097 7458
8083 7522
8065 7580
8055 7608
8010 7689
7930 7793
7851 7852
7772 7896
7712 7925
7695 7932
7652 7948
7556 7965
7408 7984
7385 7985
7310 7985
